
--- Job problem_3.gms Start 12/22/21 16:38:13 37.1.0 r07954d5 WEX-WEI x86 64bit/MS Windows
--- Applying:
    C:\GAMS\37\gmsprmNT.txt
--- GAMS Parameters defined
    Input "C:\Users\semih\Desktop\GAMS CALISMA\ILKLER\4_Burak\Benim_cozumlerim\problem_3.gms"
    PageSize 0
    ScrDir "C:\Users\semih\Desktop\GAMS CALISMA\ILKLER\4_Burak\Benim_cozumlerim\225a\"
    SysDir C:\GAMS\37\
    LogOption 3
    ErrMsg 1
    ErrorLog 99
    IDE 1
    LstTitleLeftAligned 1
Licensee: GAMS Community License for Mehmet Semih BabacanG210511|0002AO-GEN
          Yildiz Technical University                                CL1316
          C:\Users\semih\Documents\GAMS\gamslice.txt
          Mehmet Semih Babacan, l6918040@std.yildiz.edu.tr                 
          Community license for demonstration and instructional purposes only
Processor information: 1 socket(s), 4 core(s), and 8 thread(s) available
GAMS 37.1.0   Copyright (C) 1987-2021 GAMS Development. All rights reserved
--- Starting compilation
--- problem_3.gms(63) 3 Mb
--- Starting execution: elapsed 0:00:00.011
--- problem_3.gms(20) 4 Mb
--- Generating MIP model my_model
--- problem_3.gms(62) 4 Mb
---   31 rows  31 columns  136 non-zeroes
---   25 discrete-columns
--- Executing CPLEX (Solvelink=2): elapsed 0:00:00.017

IBM ILOG CPLEX   37.1.0 r07954d5 Released Nov 11, 2021 WEI x86 64bit/MS Window

--- *** This solver runs with a community license. No commercial use.
--- GMO setup time: 0.00s
--- GMO memory 0.50 Mb (peak 0.50 Mb)
--- Dictionary memory 0.00 Mb
--- Cplex 20.1.0.1 link memory 0.00 Mb (peak 0.00 Mb)
--- Starting Cplex

Version identifier: 20.1.0.1 | 2021-04-07 | 3a818710c
CPXPARAM_Advance                                 0
CPXPARAM_Threads                                 1
CPXPARAM_MIP_Display                             4
CPXPARAM_MIP_Pool_Capacity                       0
CPXPARAM_MIP_Tolerances_AbsMIPGap                0
Generic callback                                 0x50
Found incumbent of value 5000.000000 after 0.00 sec. (0.00 ticks)
Tried aggregator 1 time.
MIP Presolve eliminated 0 rows and 1 columns.
Reduced MIP has 30 rows, 30 columns, and 110 nonzeros.
Reduced MIP has 25 binaries, 0 generals, 0 SOSs, and 0 indicators.
Presolve time = 0.00 sec. (0.05 ticks)
Probing time = 0.00 sec. (0.03 ticks)
Tried aggregator 1 time.
Detecting symmetries...
Reduced MIP has 30 rows, 30 columns, and 110 nonzeros.
Reduced MIP has 25 binaries, 0 generals, 0 SOSs, and 0 indicators.
Presolve time = 0.00 sec. (0.07 ticks)
Probing time = 0.00 sec. (0.03 ticks)
Clique table members: 20.
MIP emphasis: balance optimality and feasibility.
MIP search method: dynamic search.
Parallel mode: none, using 1 thread.
Tried aggregator 1 time.
No LP presolve or aggregator reductions.
Presolve time = 0.00 sec. (0.02 ticks)
Initializing dual steep norms . . .

Iteration log . . .
Iteration:     1   Dual objective     =            42.000000
Root relaxation solution time = 0.00 sec. (0.05 ticks)

        Nodes                                         Cuts/
   Node  Left     Objective  IInf  Best Integer    Best Bound    ItCnt     Gap

*     0+    0                         5000.0000        0.0000           100.00%
Found incumbent of value 5000.000000 after 0.00 sec. (0.30 ticks)
      0     0       55.4000     9     5000.0000       55.4000       14   98.89%
      0     0       67.5000    11     5000.0000      Cuts: 13       31   98.65%
      0     0       70.0000    10     5000.0000      Cuts: 10       44   98.60%
      0     0       70.0000    10     5000.0000      Cuts: 10       52   98.60%
Detecting symmetries...
      0     2       70.0000    10     5000.0000       70.0000       52   98.60%
Elapsed time = 0.02 sec. (2.09 ticks, tree = 0.01 MB)

Clique cuts applied:  2
Implied bound cuts applied:  8
Mixed integer rounding cuts applied:  4
Zero-half cuts applied:  1
Gomory fractional cuts applied:  1

Root node processing (before b&c):
  Real time             =    0.02 sec. (2.08 ticks)
Sequential b&c:
  Real time             =    0.00 sec. (4.47 ticks)
                          ------------
Total (root+branch&cut) =    0.02 sec. (6.55 ticks)

--- MIP status (101): integer optimal solution.
--- Cplex Time: 0.02sec (det. 6.55 ticks)

--- Fixing integer variables and solving final LP...

Version identifier: 20.1.0.1 | 2021-04-07 | 3a818710c
CPXPARAM_Advance                                 2
CPXPARAM_Threads                                 1
CPXPARAM_MIP_Display                             4
CPXPARAM_MIP_Pool_Capacity                       0
CPXPARAM_MIP_Tolerances_AbsMIPGap                0
Tried aggregator 1 time.
LP Presolve eliminated 10 rows and 26 columns.
Reduced LP has 20 rows, 5 columns, and 40 nonzeros.
Presolve time = 0.00 sec. (0.02 ticks)
Symmetry aggregator did 23 additional substitutions.

Dual crossover.
  Dual:  Fixed no variables.
  Primal:  Fixed no variables.

--- Fixed MIP status (1): optimal.
--- Cplex Time: 0.00sec (det. 0.05 ticks)


Proven optimal solution
MIP Solution:         5000.000000    (499 iterations, 111 nodes)
Final Solve:          5000.000000    (0 iterations)

Best possible:        5000.000000
Absolute gap:            0.000000
Relative gap:            0.000000

--- Reading solution for model my_model
--- Executing after solve: elapsed 0:00:00.087
--- problem_3.gms(63) 4 Mb
*** Status: Normal completion
--- Job problem_3.gms Stop 12/22/21 16:38:13 elapsed 0:00:00.087
